sat
(:card2bv-rewrites        1
 :elim-unconstrained      49
 :max-memory              384.08
 :memory                  100.87
 :num-allocs              22721148067.00
 :rlimit-count            30757684
 :sat-backjumps           29173
 :sat-backtracks          414
 :sat-conflicts           29587
 :sat-decisions           99503
 :sat-del-clause          739737
 :sat-elim-bool-vars-res  137619
 :sat-elim-literals       12802
 :sat-gc-clause           9850
 :sat-minimized-lits      344760
 :sat-mk-clause-2ary      426805
 :sat-mk-clause-3ary      181428
 :sat-mk-clause-nary      1203695
 :sat-mk-var              287365
 :sat-probing-assigned    2
 :sat-propagations-2ary   10226908
 :sat-propagations-nary   15160537
 :sat-restarts            3031
 :sat-scc-elim-binary     926
 :sat-scc-elim-vars       404
 :sat-subs-resolution     12729
 :sat-subs-resolution-dyn 23127
 :sat-subsumed            151049
 :sat-units               15
 :time                    14.22
 :total-time              14.24)
